NAME : cgl_76.10411.tour
COMMENT : Length = 10411
COMMENT : Found by LKH-3 [Keld Helsgaun] Fri Nov  8 19:20:31 2024
TYPE : TOUR
DIMENSION : 76
TOUR_SECTION
46
45
43
68
67
48
47
49
65
66
50
51
52
53
62
63
64
61
60
59
58
57
56
55
54
69
70
71
72
76
1
2
3
5
7
9
8
6
4
11
12
10
13
14
15
16
17
18
19
20
28
27
21
22
24
25
26
23
30
31
29
32
35
34
36
38
37
33
75
74
73
39
40
41
44
42
-1
EOF
